50 20408
5097 6583 6125 6090 3378 6974 7010 8200 3553 7089 1624 7087 9811 7990 2552 4505 6143 9526 9357 361 8058 4218 8264 5869 7579 1 9957 9701 7724 8330 6279 5371 1959 9104 1549 10011 6278 8047 6174 4684 1 6124 4862 3824 10166 6075 9869 714 7886 7416 
4556 6709 5687 5132 3961 6434 7298 8716 3490 6515 1352 6300 9513 8581 2025 3581 6906 9969 9150 479 7578 3544 8121 4919 6825 105 9735 9736 6882 8328 5742 5356 2952 9110 1201 9066 6025 7613 6825 4351 188 5778 4523 3270 9620 5891 9302 482 7404 7641 
